competition.dzn
solution = [-1, -1, -1, -1, -1, -1, -1, -1, 125, -1, -1, -1, 98, 1, 0, 110, 109, 42, 44, 43, 126, 128, 127, 65, 64, 66, 30, 18, 87, 89, 85, 86, 84, 88, 4, 49, 50, 76, 78, 77, 129, 131, 130, 56, 55, 111, 112, 115, 113, 46, 45, 68, 67, 12, 13, 14, 79, 80, 100, 103, 99, 101, 36, 33, 31, 32, 34, 35, 19, 20, 23, 116, 114, 117, 58, 59, 57, 61, 94, 70, 69, 102, 105, 104, 22, 24, 21, 28, 27, 25, 26, 133, 134, 135, 132, 7, 9, 5, 119, 121, 118, 138, 136, 137, 73, 71, 72, 74, 120, 122, 123, 95, 96, 97, 91, 90, 81, 82, 6, 8, 10, 108, 107, 106, 40, 37, 39, 41, 38, 51, 52, 48, 47, 15, 16, 60, 62, 63, 53, 83, 29, 3, 2, 93, 92, 75, 124, 54, 11, 17];
obj = 27943;
