competition.sol
solution = [-1, -1, -1, -1, -1, -1, -1, -1, 14, -1, -1, -1, 12, 0, 0, 13, 13, 5, 5, 5, 14, 14, 14, 8, 8, 8, 4, 3, 10, 10, 10, 10, 10, 10, 1, 6, 6, 9, 9, 9, 14, 14, 14, 7, 7, 13, 13, 13, 13, 5, 5, 8, 8, 2, 2, 2, 9, 9, 12, 12, 12, 12, 4, 4, 4, 4, 4, 4, 3, 3, 3, 13, 13, 13, 7, 7, 7, 7, 11, 8, 8, 12, 12, 12, 3, 3, 3, 3, 3, 3, 3, 14, 14, 14, 14, 1, 1, 1, 13, 13, 13, 14, 14, 14, 8, 8, 8, 8, 13, 13, 13, 11, 11, 11, 10, 10, 9, 9, 1, 1, 1, 12, 12, 12, 4, 4, 4, 4, 4, 6, 6, 5, 5, 2, 2, 7, 7, 7, 6, 9, 3, 0, 0, 10, 10, 8, 13, 6, 1, 2];
obj = 27943;
